9 14
3 2
7 4
6 12
19 9
17 13
10 8
18 12
13 7
11 12
10 9
9 13
18 3
14 10
2 3
2 3
10 3
3 18
16 4
17 13
11 11
4 17
13 3
4 8
12 9
19 13
6 19
14 17
4 19
3 2
16 1
8 4
2 10
13 14
2 1
10 3
18 3
9 11
5 8
4 15
3 15
2 7
2 19
15 18
7 19
4 4
17 10
8 8
7 9
15 14
18 5
12 8
4 8
6 4
19 4
1 18
18 10
4 5
17 14
9 14
8 6
8 14
1 16
16 6
2 12
8 4
9 9
6 14
12 18
6 15
18 6
17 8
19 1
3 5
3 2
1 12
17 8
14 13
10 4
7 9
6 19
5 12
3 15
7 15
19 14
2 1
9 1
8 11
8 3
15 4
2 2
19 4
5 15
13 15
2 14
14 18
10 11
12 2
10 6
10 9
